361,569
857,648
600,246
921,284
521,487
852,351
698,382
810,805
307,216
681,676
512,237
909,480
521,325
512,237
751,503
685,377
417,42
532,700
668,432
737,761
681,-14
926,-75
396,498
850,529
672,434
1001,243
415,448
1194,572
573,619
651,406
699,288
672,465
536,301
